NAME = SAfile175,
TOURSIZE = 175,
LENGTH = 21605,
138,52,115,43,20,109,4,174,162,78,34,130,143,95,54,141,152,135,94,158,90,111,76,86,124,175,60,142,3,30,56,88,63,145,96,21,134,41,36,132,99,140,153,70,149,24,173,11,59,128,10,77,66,73,101,131,1,27,40,127,13,85,84,151,104,112,91,71,81,172,32,80,144,102,123,167,103,50,105,159,64,53,170,92,48,114,31,69,93,19,120,39,5,26,72,118,49,148,89,46,171,119,110,17,137,2,83,25,139,62,15,9,45,116,133,29,68,166,154,87,7,74,113,38,37,47,82,157,44,97,136,161,108,75,61,79,156,98,67,117,163,35,16,146,6,42,58,160,100,65,23,168,28,169,147,150,14,57,155,8,125,129,55,106,107,51,121,12,22,126,164,165,33,18,122